p cnf 261 1300
c p weight 14 1 0
c p weight -14 1 0
c p weight 15 0 0
c p weight -15 1 0
c p weight 18 0 0
c p weight -18 1 0
c p weight 19 1 0
c p weight -19 1 0
c p weight 22 -0.707106781186547461715008466853760182857513427734375 0
c p weight -22 1 0
c p weight 23 0.70710678118654757273731092936941422522068023681640625 0
c p weight -23 1 0
c p weight 26 0 0
c p weight -26 1 0
c p weight 27 1 0
c p weight -27 1 0
c p weight 30 -1 0
c p weight -30 1 0
c p weight 31 0 0
c p weight -31 1 0
c p weight 36 0 0
c p weight -36 1 0
c p weight 37 1 0
c p weight -37 1 0
c p weight 42 1 0
c p weight -42 1 0
c p weight 43 0 0
c p weight -43 1 0
c p weight 46 0 0
c p weight -46 1 0
c p weight 47 1 0
c p weight -47 1 0
c p weight 50 -0.577350269189625731058868041145615279674530029296875 0
c p weight -50 1 0
c p weight 51 0.8164965809277260344600790631375275552272796630859375 0
c p weight -51 1 0
c p weight 54 0 0
c p weight -54 1 0
c p weight 55 1 0
c p weight -55 1 0
c p weight 58 -1 0
c p weight -58 1 0
c p weight 59 0 0
c p weight -59 1 0
c p weight 64 0 0
c p weight -64 1 0
c p weight 65 1 0
c p weight -65 1 0
c p weight 70 1 0
c p weight -70 1 0
c p weight 71 0 0
c p weight -71 1 0
c p weight 74 0 0
c p weight -74 1 0
c p weight 75 1 0
c p weight -75 1 0
c p weight 78 -0.499999999999999833466546306226518936455249786376953125 0
c p weight -78 1 0
c p weight 79 0.86602540378443870761060452423407696187496185302734375 0
c p weight -79 1 0
c p weight 82 0 0
c p weight -82 1 0
c p weight 83 1 0
c p weight -83 1 0
c p weight 86 -1 0
c p weight -86 1 0
c p weight 87 0 0
c p weight -87 1 0
c p weight 92 0 0
c p weight -92 1 0
c p weight 93 1 0
c p weight -93 1 0
c p weight 98 1 0
c p weight -98 1 0
c p weight 99 0 0
c p weight -99 1 0
c p weight 102 0 0
c p weight -102 1 0
c p weight 103 1 0
c p weight -103 1 0
c p weight 106 -0.447213595499957927703604809721582569181919097900390625 0
c p weight -106 1 0
c p weight 107 0.89442719099991585540720961944316513836383819580078125 0
c p weight -107 1 0
c p weight 110 0 0
c p weight -110 1 0
c p weight 111 1 0
c p weight -111 1 0
c p weight 114 -1 0
c p weight -114 1 0
c p weight 115 0 0
c p weight -115 1 0
c p weight 120 0 0
c p weight -120 1 0
c p weight 121 1 0
c p weight -121 1 0
c p weight 132 0 0
c p weight -132 1 0
c p weight 133 1 0
c p weight -133 1 0
c p weight 138 1 0
c p weight -138 1 0
c p weight 139 0 0
c p weight -139 1 0
c p weight 142 0 0
c p weight -142 1 0
c p weight 143 1 0
c p weight -143 1 0
c p weight 146 -0.447213595499958149748209734752890653908252716064453125 0
c p weight -146 1 0
c p weight 147 -0.89442719099991574438490715692751109600067138671875 0
c p weight -147 1 0
c p weight 150 0 0
c p weight -150 1 0
c p weight 151 1 0
c p weight -151 1 0
c p weight 154 -1 0
c p weight -154 1 0
c p weight 155 0 0
c p weight -155 1 0
c p weight 163 0 0
c p weight -163 1 0
c p weight 164 1 0
c p weight -164 1 0
c p weight 169 1 0
c p weight -169 1 0
c p weight 170 0 0
c p weight -170 1 0
c p weight 173 0 0
c p weight -173 1 0
c p weight 174 1 0
c p weight -174 1 0
c p weight 177 -0.500000000000000444089209850062616169452667236328125 0
c p weight -177 1 0
c p weight 178 -0.86602540378443837454369713668711483478546142578125 0
c p weight -178 1 0
c p weight 181 0 0
c p weight -181 1 0
c p weight 182 1 0
c p weight -182 1 0
c p weight 185 -1 0
c p weight -185 1 0
c p weight 186 0 0
c p weight -186 1 0
c p weight 194 0 0
c p weight -194 1 0
c p weight 195 1 0
c p weight -195 1 0
c p weight 200 1 0
c p weight -200 1 0
c p weight 201 0 0
c p weight -201 1 0
c p weight 204 0 0
c p weight -204 1 0
c p weight 205 1 0
c p weight -205 1 0
c p weight 208 -0.57735026918962562003656557862996123731136322021484375 0
c p weight -208 1 0
c p weight 209 -0.81649658092772614548238152565318159759044647216796875 0
c p weight -209 1 0
c p weight 212 0 0
c p weight -212 1 0
c p weight 213 1 0
c p weight -213 1 0
c p weight 216 -1 0
c p weight -216 1 0
c p weight 217 0 0
c p weight -217 1 0
c p weight 225 0 0
c p weight -225 1 0
c p weight 226 1 0
c p weight -226 1 0
c p weight 231 1 0
c p weight -231 1 0
c p weight 232 0 0
c p weight -232 1 0
c p weight 235 0 0
c p weight -235 1 0
c p weight 236 1 0
c p weight -236 1 0
c p weight 239 -0.7071067811865476837596133918850682675838470458984375 0
c p weight -239 1 0
c p weight 240 -0.707106781186547461715008466853760182857513427734375 0
c p weight -240 1 0
c p weight 243 0 0
c p weight -243 1 0
c p weight 244 1 0
c p weight -244 1 0
c p weight 247 -1 0
c p weight -247 1 0
c p weight 248 0 0
c p weight -248 1 0
c p weight 258 -1 0
c p weight -258 1 0
c p weight 261 0.5 0
261 0
-11 0
-9 0
-7 0
-5 0
-3 0
-1 0
12 -11 1 0
12 -11 2 0
-12 11 1 0
-12 11 2 0
12 -13 -11 0
-12 -13 11 0
12 13 11 -1 -2 0
-12 13 -11 -1 -2 0
13 1 -2 0
-13 1 2 0
-14 1 0
13 -14 -2 0
-13 -14 2 0
13 14 -1 2 0
-13 14 -1 -2 0
-15 1 0
13 -15 2 0
-13 -15 -2 0
13 15 -1 -2 0
-13 15 -1 2 0
16 17 -12 0
16 -12 13 0
-16 17 12 0
-16 12 13 0
16 -12 -1 0
-16 12 -1 0
16 -17 12 1 -13 0
-16 -17 -12 1 -13 0
17 -1 13 0
-17 1 13 0
-18 13 0
17 -18 -1 0
-17 -18 1 0
17 18 1 -13 0
-17 18 -1 -13 0
-19 13 0
17 -19 1 0
-17 -19 -1 0
17 19 -1 -13 0
-17 19 1 -13 0
20 -16 17 0
20 -16 13 0
-20 16 17 0
-20 16 13 0
20 -21 -16 0
-20 -21 16 0
20 21 16 -17 -13 0
-20 21 -16 -17 -13 0
21 17 -13 0
-21 17 13 0
-22 17 0
21 -22 -13 0
-21 -22 13 0
21 22 -17 13 0
-21 22 -17 -13 0
-23 17 0
21 -23 13 0
-21 -23 -13 0
21 23 -17 -13 0
-21 23 -17 13 0
24 25 -20 0
24 -20 21 0
-24 25 20 0
-24 20 21 0
24 -20 -17 0
-24 20 -17 0
24 -25 20 17 -21 0
-24 -25 -20 17 -21 0
25 -17 21 0
-25 17 21 0
-26 21 0
25 -26 -17 0
-25 -26 17 0
25 26 17 -21 0
-25 26 -17 -21 0
-27 21 0
25 -27 17 0
-25 -27 -17 0
25 27 -17 -21 0
-25 27 17 -21 0
28 -24 25 0
28 -24 21 0
-28 24 25 0
-28 24 21 0
28 -29 -24 0
-28 -29 24 0
28 29 24 -25 -21 0
-28 29 -24 -25 -21 0
29 25 -21 0
-29 25 21 0
-30 25 0
29 -30 -21 0
-29 -30 21 0
29 30 -25 21 0
-29 30 -25 -21 0
-31 25 0
29 -31 21 0
-29 -31 -21 0
29 31 -25 -21 0
-29 31 -25 21 0
32 -28 25 0
32 -28 29 0
-32 28 25 0
-32 28 29 0
32 28 -25 -29 0
-32 -28 -25 -29 0
33 25 -29 0
33 -25 29 0
-33 25 29 0
-33 -25 -29 0
34 35 -32 0
34 -32 33 0
-34 35 32 0
-34 32 33 0
34 -32 -25 0
-34 32 -25 0
34 -35 32 25 -33 0
-34 -35 -32 25 -33 0
35 -25 33 0
-35 25 33 0
-36 33 0
35 -36 -25 0
-35 -36 25 0
35 36 25 -33 0
-35 36 -25 -33 0
-37 33 0
35 -37 25 0
-35 -37 -25 0
35 37 -25 -33 0
-35 37 25 -33 0
38 -34 35 0
38 -34 33 0
-38 34 35 0
-38 34 33 0
38 34 -35 -33 0
-38 -34 -35 -33 0
39 35 -33 0
39 -35 33 0
-39 35 33 0
-39 -35 -33 0
40 -38 3 0
40 -38 4 0
-40 38 3 0
-40 38 4 0
40 -41 -38 0
-40 -41 38 0
40 41 38 -3 -4 0
-40 41 -38 -3 -4 0
41 3 -4 0
-41 3 4 0
-42 3 0
41 -42 -4 0
-41 -42 4 0
41 42 -3 4 0
-41 42 -3 -4 0
-43 3 0
41 -43 4 0
-41 -43 -4 0
41 43 -3 -4 0
-41 43 -3 4 0
44 45 -40 0
44 -40 41 0
-44 45 40 0
-44 40 41 0
44 -40 -3 0
-44 40 -3 0
44 -45 40 3 -41 0
-44 -45 -40 3 -41 0
45 -3 41 0
-45 3 41 0
-46 41 0
45 -46 -3 0
-45 -46 3 0
45 46 3 -41 0
-45 46 -3 -41 0
-47 41 0
45 -47 3 0
-45 -47 -3 0
45 47 -3 -41 0
-45 47 3 -41 0
48 -44 45 0
48 -44 41 0
-48 44 45 0
-48 44 41 0
48 -49 -44 0
-48 -49 44 0
48 49 44 -45 -41 0
-48 49 -44 -45 -41 0
49 45 -41 0
-49 45 41 0
-50 45 0
49 -50 -41 0
-49 -50 41 0
49 50 -45 41 0
-49 50 -45 -41 0
-51 45 0
49 -51 41 0
-49 -51 -41 0
49 51 -45 -41 0
-49 51 -45 41 0
52 53 -48 0
52 -48 49 0
-52 53 48 0
-52 48 49 0
52 -48 -45 0
-52 48 -45 0
52 -53 48 45 -49 0
-52 -53 -48 45 -49 0
53 -45 49 0
-53 45 49 0
-54 49 0
53 -54 -45 0
-53 -54 45 0
53 54 45 -49 0
-53 54 -45 -49 0
-55 49 0
53 -55 45 0
-53 -55 -45 0
53 55 -45 -49 0
-53 55 45 -49 0
56 -52 53 0
56 -52 49 0
-56 52 53 0
-56 52 49 0
56 -57 -52 0
-56 -57 52 0
56 57 52 -53 -49 0
-56 57 -52 -53 -49 0
57 53 -49 0
-57 53 49 0
-58 53 0
57 -58 -49 0
-57 -58 49 0
57 58 -53 49 0
-57 58 -53 -49 0
-59 53 0
57 -59 49 0
-57 -59 -49 0
57 59 -53 -49 0
-57 59 -53 49 0
60 -56 53 0
60 -56 57 0
-60 56 53 0
-60 56 57 0
60 56 -53 -57 0
-60 -56 -53 -57 0
61 53 -57 0
61 -53 57 0
-61 53 57 0
-61 -53 -57 0
62 63 -60 0
62 -60 61 0
-62 63 60 0
-62 60 61 0
62 -60 -53 0
-62 60 -53 0
62 -63 60 53 -61 0
-62 -63 -60 53 -61 0
63 -53 61 0
-63 53 61 0
-64 61 0
63 -64 -53 0
-63 -64 53 0
63 64 53 -61 0
-63 64 -53 -61 0
-65 61 0
63 -65 53 0
-63 -65 -53 0
63 65 -53 -61 0
-63 65 53 -61 0
66 -62 63 0
66 -62 61 0
-66 62 63 0
-66 62 61 0
66 62 -63 -61 0
-66 -62 -63 -61 0
67 63 -61 0
67 -63 61 0
-67 63 61 0
-67 -63 -61 0
68 -66 5 0
68 -66 6 0
-68 66 5 0
-68 66 6 0
68 -69 -66 0
-68 -69 66 0
68 69 66 -5 -6 0
-68 69 -66 -5 -6 0
69 5 -6 0
-69 5 6 0
-70 5 0
69 -70 -6 0
-69 -70 6 0
69 70 -5 6 0
-69 70 -5 -6 0
-71 5 0
69 -71 6 0
-69 -71 -6 0
69 71 -5 -6 0
-69 71 -5 6 0
72 73 -68 0
72 -68 69 0
-72 73 68 0
-72 68 69 0
72 -68 -5 0
-72 68 -5 0
72 -73 68 5 -69 0
-72 -73 -68 5 -69 0
73 -5 69 0
-73 5 69 0
-74 69 0
73 -74 -5 0
-73 -74 5 0
73 74 5 -69 0
-73 74 -5 -69 0
-75 69 0
73 -75 5 0
-73 -75 -5 0
73 75 -5 -69 0
-73 75 5 -69 0
76 -72 73 0
76 -72 69 0
-76 72 73 0
-76 72 69 0
76 -77 -72 0
-76 -77 72 0
76 77 72 -73 -69 0
-76 77 -72 -73 -69 0
77 73 -69 0
-77 73 69 0
-78 73 0
77 -78 -69 0
-77 -78 69 0
77 78 -73 69 0
-77 78 -73 -69 0
-79 73 0
77 -79 69 0
-77 -79 -69 0
77 79 -73 -69 0
-77 79 -73 69 0
80 81 -76 0
80 -76 77 0
-80 81 76 0
-80 76 77 0
80 -76 -73 0
-80 76 -73 0
80 -81 76 73 -77 0
-80 -81 -76 73 -77 0
81 -73 77 0
-81 73 77 0
-82 77 0
81 -82 -73 0
-81 -82 73 0
81 82 73 -77 0
-81 82 -73 -77 0
-83 77 0
81 -83 73 0
-81 -83 -73 0
81 83 -73 -77 0
-81 83 73 -77 0
84 -80 81 0
84 -80 77 0
-84 80 81 0
-84 80 77 0
84 -85 -80 0
-84 -85 80 0
84 85 80 -81 -77 0
-84 85 -80 -81 -77 0
85 81 -77 0
-85 81 77 0
-86 81 0
85 -86 -77 0
-85 -86 77 0
85 86 -81 77 0
-85 86 -81 -77 0
-87 81 0
85 -87 77 0
-85 -87 -77 0
85 87 -81 -77 0
-85 87 -81 77 0
88 -84 81 0
88 -84 85 0
-88 84 81 0
-88 84 85 0
88 84 -81 -85 0
-88 -84 -81 -85 0
89 81 -85 0
89 -81 85 0
-89 81 85 0
-89 -81 -85 0
90 91 -88 0
90 -88 89 0
-90 91 88 0
-90 88 89 0
90 -88 -81 0
-90 88 -81 0
90 -91 88 81 -89 0
-90 -91 -88 81 -89 0
91 -81 89 0
-91 81 89 0
-92 89 0
91 -92 -81 0
-91 -92 81 0
91 92 81 -89 0
-91 92 -81 -89 0
-93 89 0
91 -93 81 0
-91 -93 -81 0
91 93 -81 -89 0
-91 93 81 -89 0
94 -90 91 0
94 -90 89 0
-94 90 91 0
-94 90 89 0
94 90 -91 -89 0
-94 -90 -91 -89 0
95 91 -89 0
95 -91 89 0
-95 91 89 0
-95 -91 -89 0
96 -94 7 0
96 -94 8 0
-96 94 7 0
-96 94 8 0
96 -97 -94 0
-96 -97 94 0
96 97 94 -7 -8 0
-96 97 -94 -7 -8 0
97 7 -8 0
-97 7 8 0
-98 7 0
97 -98 -8 0
-97 -98 8 0
97 98 -7 8 0
-97 98 -7 -8 0
-99 7 0
97 -99 8 0
-97 -99 -8 0
97 99 -7 -8 0
-97 99 -7 8 0
100 101 -96 0
100 -96 97 0
-100 101 96 0
-100 96 97 0
100 -96 -7 0
-100 96 -7 0
100 -101 96 7 -97 0
-100 -101 -96 7 -97 0
101 -7 97 0
-101 7 97 0
-102 97 0
101 -102 -7 0
-101 -102 7 0
101 102 7 -97 0
-101 102 -7 -97 0
-103 97 0
101 -103 7 0
-101 -103 -7 0
101 103 -7 -97 0
-101 103 7 -97 0
104 -100 101 0
104 -100 97 0
-104 100 101 0
-104 100 97 0
104 -105 -100 0
-104 -105 100 0
104 105 100 -101 -97 0
-104 105 -100 -101 -97 0
105 101 -97 0
-105 101 97 0
-106 101 0
105 -106 -97 0
-105 -106 97 0
105 106 -101 97 0
-105 106 -101 -97 0
-107 101 0
105 -107 97 0
-105 -107 -97 0
105 107 -101 -97 0
-105 107 -101 97 0
108 109 -104 0
108 -104 105 0
-108 109 104 0
-108 104 105 0
108 -104 -101 0
-108 104 -101 0
108 -109 104 101 -105 0
-108 -109 -104 101 -105 0
109 -101 105 0
-109 101 105 0
-110 105 0
109 -110 -101 0
-109 -110 101 0
109 110 101 -105 0
-109 110 -101 -105 0
-111 105 0
109 -111 101 0
-109 -111 -101 0
109 111 -101 -105 0
-109 111 101 -105 0
112 -108 109 0
112 -108 105 0
-112 108 109 0
-112 108 105 0
112 -113 -108 0
-112 -113 108 0
112 113 108 -109 -105 0
-112 113 -108 -109 -105 0
113 109 -105 0
-113 109 105 0
-114 109 0
113 -114 -105 0
-113 -114 105 0
113 114 -109 105 0
-113 114 -109 -105 0
-115 109 0
113 -115 105 0
-113 -115 -105 0
113 115 -109 -105 0
-113 115 -109 105 0
116 -112 109 0
116 -112 113 0
-116 112 109 0
-116 112 113 0
116 112 -109 -113 0
-116 -112 -109 -113 0
117 109 -113 0
117 -109 113 0
-117 109 113 0
-117 -109 -113 0
118 119 -116 0
118 -116 117 0
-118 119 116 0
-118 116 117 0
118 -116 -109 0
-118 116 -109 0
118 -119 116 109 -117 0
-118 -119 -116 109 -117 0
119 -109 117 0
-119 109 117 0
-120 117 0
119 -120 -109 0
-119 -120 109 0
119 120 109 -117 0
-119 120 -109 -117 0
-121 117 0
119 -121 109 0
-119 -121 -109 0
119 121 -109 -117 0
-119 121 109 -117 0
122 -118 119 0
122 -118 117 0
-122 118 119 0
-122 118 117 0
122 118 -119 -117 0
-122 -118 -119 -117 0
123 119 -117 0
123 -119 117 0
-123 119 117 0
-123 -119 -117 0
124 122 -10 0
124 -122 10 0
-124 122 10 0
-124 -122 -10 0
125 -124 9 0
125 -124 123 0
-125 124 9 0
-125 124 123 0
125 -124 119 -10 0
125 -124 -119 10 0
-125 124 119 -10 0
-125 124 -119 10 0
125 124 -9 119 10 -123 0
125 124 -9 -119 -10 -123 0
-125 -124 -9 119 10 -123 0
-125 -124 -9 -119 -10 -123 0
127 9 -119 0
127 -9 119 0
-127 9 119 0
-127 -9 -119 0
126 10 -123 0
126 -10 123 0
-126 10 123 0
-126 -10 -123 0
128 -125 127 0
128 -125 123 0
-128 125 127 0
-128 125 123 0
128 125 -127 -123 0
-128 -125 -127 -123 0
129 127 -123 0
129 -127 123 0
-129 127 123 0
-129 -127 -123 0
130 131 -128 0
130 -128 129 0
-130 131 128 0
-130 128 129 0
130 -128 -127 0
-130 128 -127 0
130 -131 128 127 -129 0
-130 -131 -128 127 -129 0
131 -127 129 0
-131 127 129 0
-132 129 0
131 -132 -127 0
-131 -132 127 0
131 132 127 -129 0
-131 132 -127 -129 0
-133 129 0
131 -133 127 0
-131 -133 -127 0
131 133 -127 -129 0
-131 133 127 -129 0
134 -130 131 0
134 -130 129 0
-134 130 131 0
-134 130 129 0
134 130 -131 -129 0
-134 -130 -131 -129 0
135 131 -129 0
135 -131 129 0
-135 131 129 0
-135 -131 -129 0
136 -134 131 0
136 -134 135 0
-136 134 131 0
-136 134 135 0
136 -137 -134 0
-136 -137 134 0
136 137 134 -131 -135 0
-136 137 -134 -131 -135 0
137 131 -135 0
-137 131 135 0
-138 131 0
137 -138 -135 0
-137 -138 135 0
137 138 -131 135 0
-137 138 -131 -135 0
-139 131 0
137 -139 135 0
-137 -139 -135 0
137 139 -131 -135 0
-137 139 -131 135 0
140 141 -136 0
140 -136 137 0
-140 141 136 0
-140 136 137 0
140 -136 -131 0
-140 136 -131 0
140 -141 136 131 -137 0
-140 -141 -136 131 -137 0
141 -131 137 0
-141 131 137 0
-142 137 0
141 -142 -131 0
-141 -142 131 0
141 142 131 -137 0
-141 142 -131 -137 0
-143 137 0
141 -143 131 0
-141 -143 -131 0
141 143 -131 -137 0
-141 143 131 -137 0
144 -140 141 0
144 -140 137 0
-144 140 141 0
-144 140 137 0
144 -145 -140 0
-144 -145 140 0
144 145 140 -141 -137 0
-144 145 -140 -141 -137 0
145 141 -137 0
-145 141 137 0
-146 141 0
145 -146 -137 0
-145 -146 137 0
145 146 -141 137 0
-145 146 -141 -137 0
-147 141 0
145 -147 137 0
-145 -147 -137 0
145 147 -141 -137 0
-145 147 -141 137 0
148 149 -144 0
148 -144 145 0
-148 149 144 0
-148 144 145 0
148 -144 -141 0
-148 144 -141 0
148 -149 144 141 -145 0
-148 -149 -144 141 -145 0
149 -141 145 0
-149 141 145 0
-150 145 0
149 -150 -141 0
-149 -150 141 0
149 150 141 -145 0
-149 150 -141 -145 0
-151 145 0
149 -151 141 0
-149 -151 -141 0
149 151 -141 -145 0
-149 151 141 -145 0
152 -148 149 0
152 -148 145 0
-152 148 149 0
-152 148 145 0
152 -153 -148 0
-152 -153 148 0
152 153 148 -149 -145 0
-152 153 -148 -149 -145 0
153 149 -145 0
-153 149 145 0
-154 149 0
153 -154 -145 0
-153 -154 145 0
153 154 -149 145 0
-153 154 -149 -145 0
-155 149 0
153 -155 145 0
-153 -155 -145 0
153 155 -149 -145 0
-153 155 -149 145 0
156 -152 149 0
156 -152 95 0
-156 152 149 0
-156 152 95 0
156 -152 91 -153 0
156 -152 -91 153 0
-156 152 91 -153 0
-156 152 -91 153 0
156 152 -149 91 153 -95 0
156 152 -149 -91 -153 -95 0
-156 -152 -149 91 153 -95 0
-156 -152 -149 -91 -153 -95 0
158 149 -91 0
158 -149 91 0
-158 149 91 0
-158 -149 -91 0
157 153 -95 0
157 -153 95 0
-157 153 95 0
-157 -153 -95 0
159 -156 158 0
159 -156 95 0
-159 156 158 0
-159 156 95 0
159 156 -158 -95 0
-159 -156 -158 -95 0
160 158 -95 0
160 -158 95 0
-160 158 95 0
-160 -158 -95 0
161 162 -159 0
161 -159 160 0
-161 162 159 0
-161 159 160 0
161 -159 -158 0
-161 159 -158 0
161 -162 159 158 -160 0
-161 -162 -159 158 -160 0
162 -158 160 0
-162 158 160 0
-163 160 0
162 -163 -158 0
-162 -163 158 0
162 163 158 -160 0
-162 163 -158 -160 0
-164 160 0
162 -164 158 0
-162 -164 -158 0
162 164 -158 -160 0
-162 164 158 -160 0
165 -161 162 0
165 -161 160 0
-165 161 162 0
-165 161 160 0
165 161 -162 -160 0
-165 -161 -162 -160 0
166 162 -160 0
166 -162 160 0
-166 162 160 0
-166 -162 -160 0
167 -165 162 0
167 -165 166 0
-167 165 162 0
-167 165 166 0
167 -168 -165 0
-167 -168 165 0
167 168 165 -162 -166 0
-167 168 -165 -162 -166 0
168 162 -166 0
-168 162 166 0
-169 162 0
168 -169 -166 0
-168 -169 166 0
168 169 -162 166 0
-168 169 -162 -166 0
-170 162 0
168 -170 166 0
-168 -170 -166 0
168 170 -162 -166 0
-168 170 -162 166 0
171 172 -167 0
171 -167 168 0
-171 172 167 0
-171 167 168 0
171 -167 -162 0
-171 167 -162 0
171 -172 167 162 -168 0
-171 -172 -167 162 -168 0
172 -162 168 0
-172 162 168 0
-173 168 0
172 -173 -162 0
-172 -173 162 0
172 173 162 -168 0
-172 173 -162 -168 0
-174 168 0
172 -174 162 0
-172 -174 -162 0
172 174 -162 -168 0
-172 174 162 -168 0
175 -171 172 0
175 -171 168 0
-175 171 172 0
-175 171 168 0
175 -176 -171 0
-175 -176 171 0
175 176 171 -172 -168 0
-175 176 -171 -172 -168 0
176 172 -168 0
-176 172 168 0
-177 172 0
176 -177 -168 0
-176 -177 168 0
176 177 -172 168 0
-176 177 -172 -168 0
-178 172 0
176 -178 168 0
-176 -178 -168 0
176 178 -172 -168 0
-176 178 -172 168 0
179 180 -175 0
179 -175 176 0
-179 180 175 0
-179 175 176 0
179 -175 -172 0
-179 175 -172 0
179 -180 175 172 -176 0
-179 -180 -175 172 -176 0
180 -172 176 0
-180 172 176 0
-181 176 0
180 -181 -172 0
-180 -181 172 0
180 181 172 -176 0
-180 181 -172 -176 0
-182 176 0
180 -182 172 0
-180 -182 -172 0
180 182 -172 -176 0
-180 182 172 -176 0
183 -179 180 0
183 -179 176 0
-183 179 180 0
-183 179 176 0
183 -184 -179 0
-183 -184 179 0
183 184 179 -180 -176 0
-183 184 -179 -180 -176 0
184 180 -176 0
-184 180 176 0
-185 180 0
184 -185 -176 0
-184 -185 176 0
184 185 -180 176 0
-184 185 -180 -176 0
-186 180 0
184 -186 176 0
-184 -186 -176 0
184 186 -180 -176 0
-184 186 -180 176 0
187 -183 180 0
187 -183 67 0
-187 183 180 0
-187 183 67 0
187 -183 63 -184 0
187 -183 -63 184 0
-187 183 63 -184 0
-187 183 -63 184 0
187 183 -180 63 184 -67 0
187 183 -180 -63 -184 -67 0
-187 -183 -180 63 184 -67 0
-187 -183 -180 -63 -184 -67 0
189 180 -63 0
189 -180 63 0
-189 180 63 0
-189 -180 -63 0
188 184 -67 0
188 -184 67 0
-188 184 67 0
-188 -184 -67 0
190 -187 189 0
190 -187 67 0
-190 187 189 0
-190 187 67 0
190 187 -189 -67 0
-190 -187 -189 -67 0
191 189 -67 0
191 -189 67 0
-191 189 67 0
-191 -189 -67 0
192 193 -190 0
192 -190 191 0
-192 193 190 0
-192 190 191 0
192 -190 -189 0
-192 190 -189 0
192 -193 190 189 -191 0
-192 -193 -190 189 -191 0
193 -189 191 0
-193 189 191 0
-194 191 0
193 -194 -189 0
-193 -194 189 0
193 194 189 -191 0
-193 194 -189 -191 0
-195 191 0
193 -195 189 0
-193 -195 -189 0
193 195 -189 -191 0
-193 195 189 -191 0
196 -192 193 0
196 -192 191 0
-196 192 193 0
-196 192 191 0
196 192 -193 -191 0
-196 -192 -193 -191 0
197 193 -191 0
197 -193 191 0
-197 193 191 0
-197 -193 -191 0
198 -196 193 0
198 -196 197 0
-198 196 193 0
-198 196 197 0
198 -199 -196 0
-198 -199 196 0
198 199 196 -193 -197 0
-198 199 -196 -193 -197 0
199 193 -197 0
-199 193 197 0
-200 193 0
199 -200 -197 0
-199 -200 197 0
199 200 -193 197 0
-199 200 -193 -197 0
-201 193 0
199 -201 197 0
-199 -201 -197 0
199 201 -193 -197 0
-199 201 -193 197 0
202 203 -198 0
202 -198 199 0
-202 203 198 0
-202 198 199 0
202 -198 -193 0
-202 198 -193 0
202 -203 198 193 -199 0
-202 -203 -198 193 -199 0
203 -193 199 0
-203 193 199 0
-204 199 0
203 -204 -193 0
-203 -204 193 0
203 204 193 -199 0
-203 204 -193 -199 0
-205 199 0
203 -205 193 0
-203 -205 -193 0
203 205 -193 -199 0
-203 205 193 -199 0
206 -202 203 0
206 -202 199 0
-206 202 203 0
-206 202 199 0
206 -207 -202 0
-206 -207 202 0
206 207 202 -203 -199 0
-206 207 -202 -203 -199 0
207 203 -199 0
-207 203 199 0
-208 203 0
207 -208 -199 0
-207 -208 199 0
207 208 -203 199 0
-207 208 -203 -199 0
-209 203 0
207 -209 199 0
-207 -209 -199 0
207 209 -203 -199 0
-207 209 -203 199 0
210 211 -206 0
210 -206 207 0
-210 211 206 0
-210 206 207 0
210 -206 -203 0
-210 206 -203 0
210 -211 206 203 -207 0
-210 -211 -206 203 -207 0
211 -203 207 0
-211 203 207 0
-212 207 0
211 -212 -203 0
-211 -212 203 0
211 212 203 -207 0
-211 212 -203 -207 0
-213 207 0
211 -213 203 0
-211 -213 -203 0
211 213 -203 -207 0
-211 213 203 -207 0
214 -210 211 0
214 -210 207 0
-214 210 211 0
-214 210 207 0
214 -215 -210 0
-214 -215 210 0
214 215 210 -211 -207 0
-214 215 -210 -211 -207 0
215 211 -207 0
-215 211 207 0
-216 211 0
215 -216 -207 0
-215 -216 207 0
215 216 -211 207 0
-215 216 -211 -207 0
-217 211 0
215 -217 207 0
-215 -217 -207 0
215 217 -211 -207 0
-215 217 -211 207 0
218 -214 211 0
218 -214 39 0
-218 214 211 0
-218 214 39 0
218 -214 35 -215 0
218 -214 -35 215 0
-218 214 35 -215 0
-218 214 -35 215 0
218 214 -211 35 215 -39 0
218 214 -211 -35 -215 -39 0
-218 -214 -211 35 215 -39 0
-218 -214 -211 -35 -215 -39 0
220 211 -35 0
220 -211 35 0
-220 211 35 0
-220 -211 -35 0
219 215 -39 0
219 -215 39 0
-219 215 39 0
-219 -215 -39 0
221 -218 220 0
221 -218 39 0
-221 218 220 0
-221 218 39 0
221 218 -220 -39 0
-221 -218 -220 -39 0
222 220 -39 0
222 -220 39 0
-222 220 39 0
-222 -220 -39 0
223 224 -221 0
223 -221 222 0
-223 224 221 0
-223 221 222 0
223 -221 -220 0
-223 221 -220 0
223 -224 221 220 -222 0
-223 -224 -221 220 -222 0
224 -220 222 0
-224 220 222 0
-225 222 0
224 -225 -220 0
-224 -225 220 0
224 225 220 -222 0
-224 225 -220 -222 0
-226 222 0
224 -226 220 0
-224 -226 -220 0
224 226 -220 -222 0
-224 226 220 -222 0
227 -223 224 0
227 -223 222 0
-227 223 224 0
-227 223 222 0
227 223 -224 -222 0
-227 -223 -224 -222 0
228 224 -222 0
228 -224 222 0
-228 224 222 0
-228 -224 -222 0
229 -227 224 0
229 -227 228 0
-229 227 224 0
-229 227 228 0
229 -230 -227 0
-229 -230 227 0
229 230 227 -224 -228 0
-229 230 -227 -224 -228 0
230 224 -228 0
-230 224 228 0
-231 224 0
230 -231 -228 0
-230 -231 228 0
230 231 -224 228 0
-230 231 -224 -228 0
-232 224 0
230 -232 228 0
-230 -232 -228 0
230 232 -224 -228 0
-230 232 -224 228 0
233 234 -229 0
233 -229 230 0
-233 234 229 0
-233 229 230 0
233 -229 -224 0
-233 229 -224 0
233 -234 229 224 -230 0
-233 -234 -229 224 -230 0
234 -224 230 0
-234 224 230 0
-235 230 0
234 -235 -224 0
-234 -235 224 0
234 235 224 -230 0
-234 235 -224 -230 0
-236 230 0
234 -236 224 0
-234 -236 -224 0
234 236 -224 -230 0
-234 236 224 -230 0
237 -233 234 0
237 -233 230 0
-237 233 234 0
-237 233 230 0
237 -238 -233 0
-237 -238 233 0
237 238 233 -234 -230 0
-237 238 -233 -234 -230 0
238 234 -230 0
-238 234 230 0
-239 234 0
238 -239 -230 0
-238 -239 230 0
238 239 -234 230 0
-238 239 -234 -230 0
-240 234 0
238 -240 230 0
-238 -240 -230 0
238 240 -234 -230 0
-238 240 -234 230 0
241 242 -237 0
241 -237 238 0
-241 242 237 0
-241 237 238 0
241 -237 -234 0
-241 237 -234 0
241 -242 237 234 -238 0
-241 -242 -237 234 -238 0
242 -234 238 0
-242 234 238 0
-243 238 0
242 -243 -234 0
-242 -243 234 0
242 243 234 -238 0
-242 243 -234 -238 0
-244 238 0
242 -244 234 0
-242 -244 -234 0
242 244 -234 -238 0
-242 244 234 -238 0
245 -241 242 0
245 -241 238 0
-245 241 242 0
-245 241 238 0
245 -246 -241 0
-245 -246 241 0
245 246 241 -242 -238 0
-245 246 -241 -242 -238 0
246 242 -238 0
-246 242 238 0
-247 242 0
246 -247 -238 0
-246 -247 238 0
246 247 -242 238 0
-246 247 -242 -238 0
-248 242 0
246 -248 238 0
-246 -248 -238 0
246 248 -242 -238 0
-246 248 -242 238 0
249 -245 149 0
249 -245 126 0
-249 245 149 0
-249 245 126 0
249 -245 9 -157 0
249 -245 -9 157 0
-249 245 9 -157 0
-249 245 -9 157 0
249 245 -149 9 157 -126 0
249 245 -149 -9 -157 -126 0
-249 -245 -149 9 157 -126 0
-249 -245 -149 -9 -157 -126 0
251 149 -9 0
251 -149 9 0
-251 149 9 0
-251 -149 -9 0
250 157 -126 0
250 -157 126 0
-250 157 126 0
-250 -157 -126 0
252 -249 180 0
252 -249 250 0
-252 249 180 0
-252 249 250 0
252 -249 149 -188 0
252 -249 -149 188 0
-252 249 149 -188 0
-252 249 -149 188 0
252 249 -180 149 188 -250 0
252 249 -180 -149 -188 -250 0
-252 -249 -180 149 188 -250 0
-252 -249 -180 -149 -188 -250 0
254 180 -149 0
254 -180 149 0
-254 180 149 0
-254 -180 -149 0
253 188 -250 0
253 -188 250 0
-253 188 250 0
-253 -188 -250 0
255 -252 211 0
255 -252 253 0
-255 252 211 0
-255 252 253 0
255 -252 180 -219 0
255 -252 -180 219 0
-255 252 180 -219 0
-255 252 -180 219 0
255 252 -211 180 219 -253 0
255 252 -211 -180 -219 -253 0
-255 -252 -211 180 219 -253 0
-255 -252 -211 -180 -219 -253 0
257 211 -180 0
257 -211 180 0
-257 211 180 0
-257 -211 -180 0
256 219 -253 0
256 -219 253 0
-256 219 253 0
-256 -219 -253 0
258 -255 242 0
258 -255 256 0
-258 255 242 0
-258 255 256 0
258 -255 211 -246 0
258 -255 -211 246 0
-258 255 211 -246 0
-258 255 -211 246 0
258 255 -242 211 246 -256 0
258 255 -242 -211 -246 -256 0
-258 -255 -242 211 246 -256 0
-258 -255 -242 -211 -246 -256 0
260 242 -211 0
260 -242 211 0
-260 242 211 0
-260 -242 -211 0
259 246 -256 0
259 -246 256 0
-259 246 256 0
-259 -246 -256 0
-242 0
-260 0
-256 0
-257 0
-253 0
-254 0
-250 0
-251 0
-126 0
